%nproc=1
%chk=h2o-t-b3lyp.chk
%mem=2000mb
#p ub3lyp/cc-pvtz pop=full opt gfinput iop(3/33=1)

dsfdsf

0 3
O
H 1 r
H 1 r 2 a

r 0.940
a 105.0

